8 7 9 3 5 10 4 10 2 -1 
6 9 9 1 8 3 3 8 7 -1 
-1 6 10 10 4 1 7 1 6 -1 
9 8 0 7 3 6 8 1 0 -1 
2 3 -1 4 5 7 -1 6 5 -1 
10 3 10 -1 4 9 7 6 10 -1 
6 1 2 0 9 1 4 2 6 -1 
-1 3 1 1 8 9 5 10 1 -1 
-1 1 0 1 6 0 7 3 10 -1 
3 0 7 2 0 9 4 1 1 -1 
1 0 0 0 1 -1 5 -1 1 -1 
4 0 7 7 9 1 3 -1 2 -1 
3 7 8 0 8 5 7 6 6 -1 
3 -1 2 3 -1 9 0 10 7 -1 
1 9 2 4 3 -1 10 1 9 -1 
-1 2 4 1 6 5 2 5 3 -1 
0 1 -1 9 3 4 -1 6 10 -1 
-1 5 10 -1 4 6 3 -1 5 -1 
7 1 10 1 5 4 3 3 8 -1 
10 1 8 1 -1 4 1 6 -1 -1 
